\ Model sports
\ LP format - for model browsing. Use MPS format to capture full model detail.
Maximize
  C1156
Subject To
 Constraints_for_play0|1: C0 + C1 + C2 = 1
 Constraints_for_play0|2: C3 + C4 + C5 = 1
 Constraints_for_play0|3: C6 + C7 + C8 = 1
 Constraints_for_play0|4: C9 + C10 + C11 = 1
 Constraints_for_play0|5: C12 + C13 + C14 = 1
 Constraints_for_play0|6: C15 + C16 + C17 = 1
 Constraints_for_play0|7: C18 + C19 + C20 = 1
 Constraints_for_play0|8: C21 + C22 + C23 = 1
 Constraints_for_play0|9: C24 + C25 + C26 = 1
 Constraints_for_play0|10: C27 + C28 + C29 = 1
 Constraints_for_play0|11: C30 + C31 + C32 = 1
 Constraints_for_play0|12: C33 + C34 + C35 = 1
 Constraints_for_play0|13: C36 + C37 + C38 = 1
 Constraints_for_play0|14: C39 + C40 + C41 = 1
 Constraints_for_play0|15: C42 + C43 + C44 = 1
 Constraints_for_play0|16: C45 + C46 + C47 = 1
 Constraints_for_play0|17: C48 + C49 + C50 = 1
 Constraints_for_play0|18: C51 + C52 + C53 = 1
 Constraints_for_play0|19: C54 + C55 + C56 = 1
 Constraints_for_play1|0: C57 + C58 + C59 = 1
 Constraints_for_play1|2: C60 + C61 + C62 = 1
 Constraints_for_play1|3: C63 + C64 + C65 = 1
 Constraints_for_play1|4: C66 + C67 + C68 = 1
 Constraints_for_play1|5: C69 + C70 + C71 = 1
 Constraints_for_play1|6: C72 + C73 + C74 = 1
 Constraints_for_play1|7: C75 + C76 + C77 = 1
 Constraints_for_play1|8: C78 + C79 + C80 = 1
 Constraints_for_play1|9: C81 + C82 + C83 = 1
 Constraints_for_play1|10: C84 + C85 + C86 = 1
 Constraints_for_play1|11: C87 + C88 + C89 = 1
 Constraints_for_play1|12: C90 + C91 + C92 = 1
 Constraints_for_play1|13: C93 + C94 + C95 = 1
 Constraints_for_play1|14: C96 + C97 + C98 = 1
 Constraints_for_play1|15: C99 + C100 + C101 = 1
 Constraints_for_play1|16: C102 + C103 + C104 = 1
 Constraints_for_play1|17: C105 + C106 + C107 = 1
 Constraints_for_play1|18: C108 + C109 + C110 = 1
 Constraints_for_play1|19: C111 + C112 + C113 = 1
 Constraints_for_play2|0: C114 + C115 + C116 = 1
 Constraints_for_play2|1: C117 + C118 + C119 = 1
 Constraints_for_play2|3: C120 + C121 + C122 = 1
 Constraints_for_play2|4: C123 + C124 + C125 = 1
 Constraints_for_play2|5: C126 + C127 + C128 = 1
 Constraints_for_play2|6: C129 + C130 + C131 = 1
 Constraints_for_play2|7: C132 + C133 + C134 = 1
 Constraints_for_play2|8: C135 + C136 + C137 = 1
 Constraints_for_play2|9: C138 + C139 + C140 = 1
 Constraints_for_play2|10: C141 + C142 + C143 = 1
 Constraints_for_play2|11: C144 + C145 + C146 = 1
 Constraints_for_play2|12: C147 + C148 + C149 = 1
 Constraints_for_play2|13: C150 + C151 + C152 = 1
 Constraints_for_play2|14: C153 + C154 + C155 = 1
 Constraints_for_play2|15: C156 + C157 + C158 = 1
 Constraints_for_play2|16: C159 + C160 + C161 = 1
 Constraints_for_play2|17: C162 + C163 + C164 = 1
 Constraints_for_play2|18: C165 + C166 + C167 = 1
 Constraints_for_play2|19: C168 + C169 + C170 = 1
 Constraints_for_play3|0: C171 + C172 + C173 = 1
 Constraints_for_play3|1: C174 + C175 + C176 = 1
 Constraints_for_play3|2: C177 + C178 + C179 = 1
 Constraints_for_play3|4: C180 + C181 + C182 = 1
 Constraints_for_play3|5: C183 + C184 + C185 = 1
 Constraints_for_play3|6: C186 + C187 + C188 = 1
 Constraints_for_play3|7: C189 + C190 + C191 = 1
 Constraints_for_play3|8: C192 + C193 + C194 = 1
 Constraints_for_play3|9: C195 + C196 + C197 = 1
 Constraints_for_play3|10: C198 + C199 + C200 = 1
 Constraints_for_play3|11: C201 + C202 + C203 = 1
 Constraints_for_play3|12: C204 + C205 + C206 = 1
 Constraints_for_play3|13: C207 + C208 + C209 = 1
 Constraints_for_play3|14: C210 + C211 + C212 = 1
 Constraints_for_play3|15: C213 + C214 + C215 = 1
 Constraints_for_play3|16: C216 + C217 + C218 = 1
 Constraints_for_play3|17: C219 + C220 + C221 = 1
 Constraints_for_play3|18: C222 + C223 + C224 = 1
 Constraints_for_play3|19: C225 + C226 + C227 = 1
 Constraints_for_play4|0: C228 + C229 + C230 = 1
 Constraints_for_play4|1: C231 + C232 + C233 = 1
 Constraints_for_play4|2: C234 + C235 + C236 = 1
 Constraints_for_play4|3: C237 + C238 + C239 = 1
 Constraints_for_play4|5: C240 + C241 + C242 = 1
 Constraints_for_play4|6: C243 + C244 + C245 = 1
 Constraints_for_play4|7: C246 + C247 + C248 = 1
 Constraints_for_play4|8: C249 + C250 + C251 = 1
 Constraints_for_play4|9: C252 + C253 + C254 = 1
 Constraints_for_play4|10: C255 + C256 + C257 = 1
 Constraints_for_play4|11: C258 + C259 + C260 = 1
 Constraints_for_play4|12: C261 + C262 + C263 = 1
 Constraints_for_play4|13: C264 + C265 + C266 = 1
 Constraints_for_play4|14: C267 + C268 + C269 = 1
 Constraints_for_play4|15: C270 + C271 + C272 = 1
 Constraints_for_play4|16: C273 + C274 + C275 = 1
 Constraints_for_play4|17: C276 + C277 + C278 = 1
 Constraints_for_play4|18: C279 + C280 + C281 = 1
 Constraints_for_play4|19: C282 + C283 + C284 = 1
 Constraints_for_play5|0: C285 + C286 + C287 = 1
 Constraints_for_play5|1: C288 + C289 + C290 = 1
 Constraints_for_play5|2: C291 + C292 + C293 = 1
 Constraints_for_play5|3: C294 + C295 + C296 = 1
 Constraints_for_play5|4: C297 + C298 + C299 = 1
 Constraints_for_play5|6: C300 + C301 + C302 = 1
 Constraints_for_play5|7: C303 + C304 + C305 = 1
 Constraints_for_play5|8: C306 + C307 + C308 = 1
 Constraints_for_play5|9: C309 + C310 + C311 = 1
 Constraints_for_play5|10: C312 + C313 + C314 = 1
 Constraints_for_play5|11: C315 + C316 + C317 = 1
 Constraints_for_play5|12: C318 + C319 + C320 = 1
 Constraints_for_play5|13: C321 + C322 + C323 = 1
 Constraints_for_play5|14: C324 + C325 + C326 = 1
 Constraints_for_play5|15: C327 + C328 + C329 = 1
 Constraints_for_play5|16: C330 + C331 + C332 = 1
 Constraints_for_play5|17: C333 + C334 + C335 = 1
 Constraints_for_play5|18: C336 + C337 + C338 = 1
 Constraints_for_play5|19: C339 + C340 + C341 = 1
 Constraints_for_play6|0: C342 + C343 + C344 = 1
 Constraints_for_play6|1: C345 + C346 + C347 = 1
 Constraints_for_play6|2: C348 + C349 + C350 = 1
 Constraints_for_play6|3: C351 + C352 + C353 = 1
 Constraints_for_play6|4: C354 + C355 + C356 = 1
 Constraints_for_play6|5: C357 + C358 + C359 = 1
 Constraints_for_play6|7: C360 + C361 + C362 = 1
 Constraints_for_play6|8: C363 + C364 + C365 = 1
 Constraints_for_play6|9: C366 + C367 + C368 = 1
 Constraints_for_play6|10: C369 + C370 + C371 = 1
 Constraints_for_play6|11: C372 + C373 + C374 = 1
 Constraints_for_play6|12: C375 + C376 + C377 = 1
 Constraints_for_play6|13: C378 + C379 + C380 = 1
 Constraints_for_play6|14: C381 + C382 + C383 = 1
 Constraints_for_play6|15: C384 + C385 + C386 = 1
 Constraints_for_play6|16: C387 + C388 + C389 = 1
 Constraints_for_play6|17: C390 + C391 + C392 = 1
 Constraints_for_play6|18: C393 + C394 + C395 = 1
 Constraints_for_play6|19: C396 + C397 + C398 = 1
 Constraints_for_play7|0: C399 + C400 + C401 = 1
 Constraints_for_play7|1: C402 + C403 + C404 = 1
 Constraints_for_play7|2: C405 + C406 + C407 = 1
 Constraints_for_play7|3: C408 + C409 + C410 = 1
 Constraints_for_play7|4: C411 + C412 + C413 = 1
 Constraints_for_play7|5: C414 + C415 + C416 = 1
 Constraints_for_play7|6: C417 + C418 + C419 = 1
 Constraints_for_play7|8: C420 + C421 + C422 = 1
 Constraints_for_play7|9: C423 + C424 + C425 = 1
 Constraints_for_play7|10: C426 + C427 + C428 = 1
 Constraints_for_play7|11: C429 + C430 + C431 = 1
 Constraints_for_play7|12: C432 + C433 + C434 = 1
 Constraints_for_play7|13: C435 + C436 + C437 = 1
 Constraints_for_play7|14: C438 + C439 + C440 = 1
 Constraints_for_play7|15: C441 + C442 + C443 = 1
 Constraints_for_play7|16: C444 + C445 + C446 = 1
 Constraints_for_play7|17: C447 + C448 + C449 = 1
 Constraints_for_play7|18: C450 + C451 + C452 = 1
 Constraints_for_play7|19: C453 + C454 + C455 = 1
 Constraints_for_play8|0: C456 + C457 + C458 = 1
 Constraints_for_play8|1: C459 + C460 + C461 = 1
 Constraints_for_play8|2: C462 + C463 + C464 = 1
 Constraints_for_play8|3: C465 + C466 + C467 = 1
 Constraints_for_play8|4: C468 + C469 + C470 = 1
 Constraints_for_play8|5: C471 + C472 + C473 = 1
 Constraints_for_play8|6: C474 + C475 + C476 = 1
 Constraints_for_play8|7: C477 + C478 + C479 = 1
 Constraints_for_play8|9: C480 + C481 + C482 = 1
 Constraints_for_play8|10: C483 + C484 + C485 = 1
 Constraints_for_play8|11: C486 + C487 + C488 = 1
 Constraints_for_play8|12: C489 + C490 + C491 = 1
 Constraints_for_play8|13: C492 + C493 + C494 = 1
 Constraints_for_play8|14: C495 + C496 + C497 = 1
 Constraints_for_play8|15: C498 + C499 + C500 = 1
 Constraints_for_play8|16: C501 + C502 + C503 = 1
 Constraints_for_play8|17: C504 + C505 + C506 = 1
 Constraints_for_play8|18: C507 + C508 + C509 = 1
 Constraints_for_play8|19: C510 + C511 + C512 = 1
 Constraints_for_play9|0: C513 + C514 + C515 = 1
 Constraints_for_play9|1: C516 + C517 + C518 = 1
 Constraints_for_play9|2: C519 + C520 + C521 = 1
 Constraints_for_play9|3: C522 + C523 + C524 = 1
 Constraints_for_play9|4: C525 + C526 + C527 = 1
 Constraints_for_play9|5: C528 + C529 + C530 = 1
 Constraints_for_play9|6: C531 + C532 + C533 = 1
 Constraints_for_play9|7: C534 + C535 + C536 = 1
 Constraints_for_play9|8: C537 + C538 + C539 = 1
 Constraints_for_play9|10: C540 + C541 + C542 = 1
 Constraints_for_play9|11: C543 + C544 + C545 = 1
 Constraints_for_play9|12: C546 + C547 + C548 = 1
 Constraints_for_play9|13: C549 + C550 + C551 = 1
 Constraints_for_play9|14: C552 + C553 + C554 = 1
 Constraints_for_play9|15: C555 + C556 + C557 = 1
 Constraints_for_play9|16: C558 + C559 + C560 = 1
 Constraints_for_play9|17: C561 + C562 + C563 = 1
 Constraints_for_play9|18: C564 + C565 + C566 = 1
 Constraints_for_play9|19: C567 + C568 + C569 = 1
 Constraints_for_play10|0: C570 + C571 + C572 = 1
 Constraints_for_play10|1: C573 + C574 + C575 = 1
 Constraints_for_play10|2: C576 + C577 + C578 = 1
 Constraints_for_play10|3: C579 + C580 + C581 = 1
 Constraints_for_play10|4: C582 + C583 + C584 = 1
 Constraints_for_play10|5: C585 + C586 + C587 = 1
 Constraints_for_play10|6: C588 + C589 + C590 = 1
 Constraints_for_play10|7: C591 + C592 + C593 = 1
 Constraints_for_play10|8: C594 + C595 + C596 = 1
 Constraints_for_play10|9: C597 + C598 + C599 = 1
 Constraints_for_play10|11: C600 + C601 + C602 = 1
 Constraints_for_play10|12: C603 + C604 + C605 = 1
 Constraints_for_play10|13: C606 + C607 + C608 = 1
 Constraints_for_play10|14: C609 + C610 + C611 = 1
 Constraints_for_play10|15: C612 + C613 + C614 = 1
 Constraints_for_play10|16: C615 + C616 + C617 = 1
 Constraints_for_play10|17: C618 + C619 + C620 = 1
 Constraints_for_play10|18: C621 + C622 + C623 = 1
 Constraints_for_play10|19: C624 + C625 + C626 = 1
 Constraints_for_play11|0: C627 + C628 + C629 = 1
 Constraints_for_play11|1: C630 + C631 + C632 = 1
 Constraints_for_play11|2: C633 + C634 + C635 = 1
 Constraints_for_play11|3: C636 + C637 + C638 = 1
 Constraints_for_play11|4: C639 + C640 + C641 = 1
 Constraints_for_play11|5: C642 + C643 + C644 = 1
 Constraints_for_play11|6: C645 + C646 + C647 = 1
 Constraints_for_play11|7: C648 + C649 + C650 = 1
 Constraints_for_play11|8: C651 + C652 + C653 = 1
 Constraints_for_play11|9: C654 + C655 + C656 = 1
 Constraints_for_play11|10: C657 + C658 + C659 = 1
 Constraints_for_play11|12: C660 + C661 + C662 = 1
 Constraints_for_play11|13: C663 + C664 + C665 = 1
 Constraints_for_play11|14: C666 + C667 + C668 = 1
 Constraints_for_play11|15: C669 + C670 + C671 = 1
 Constraints_for_play11|16: C672 + C673 + C674 = 1
 Constraints_for_play11|17: C675 + C676 + C677 = 1
 Constraints_for_play11|18: C678 + C679 + C680 = 1
 Constraints_for_play11|19: C681 + C682 + C683 = 1
 Constraints_for_play12|0: C684 + C685 + C686 = 1
 Constraints_for_play12|1: C687 + C688 + C689 = 1
 Constraints_for_play12|2: C690 + C691 + C692 = 1
 Constraints_for_play12|3: C693 + C694 + C695 = 1
 Constraints_for_play12|4: C696 + C697 + C698 = 1
 Constraints_for_play12|5: C699 + C700 + C701 = 1
 Constraints_for_play12|6: C702 + C703 + C704 = 1
 Constraints_for_play12|7: C705 + C706 + C707 = 1
 Constraints_for_play12|8: C708 + C709 + C710 = 1
 Constraints_for_play12|9: C711 + C712 + C713 = 1
 Constraints_for_play12|10: C714 + C715 + C716 = 1
 Constraints_for_play12|11: C717 + C718 + C719 = 1
 Constraints_for_play12|13: C720 + C721 + C722 = 1
 Constraints_for_play12|14: C723 + C724 + C725 = 1
 Constraints_for_play12|15: C726 + C727 + C728 = 1
 Constraints_for_play12|16: C729 + C730 + C731 = 1
 Constraints_for_play12|17: C732 + C733 + C734 = 1
 Constraints_for_play12|18: C735 + C736 + C737 = 1
 Constraints_for_play12|19: C738 + C739 + C740 = 1
 Constraints_for_play13|0: C741 + C742 + C743 = 1
 Constraints_for_play13|1: C744 + C745 + C746 = 1
 Constraints_for_play13|2: C747 + C748 + C749 = 1
 Constraints_for_play13|3: C750 + C751 + C752 = 1
 Constraints_for_play13|4: C753 + C754 + C755 = 1
 Constraints_for_play13|5: C756 + C757 + C758 = 1
 Constraints_for_play13|6: C759 + C760 + C761 = 1
 Constraints_for_play13|7: C762 + C763 + C764 = 1
 Constraints_for_play13|8: C765 + C766 + C767 = 1
 Constraints_for_play13|9: C768 + C769 + C770 = 1
 Constraints_for_play13|10: C771 + C772 + C773 = 1
 Constraints_for_play13|11: C774 + C775 + C776 = 1
 Constraints_for_play13|12: C777 + C778 + C779 = 1
 Constraints_for_play13|14: C780 + C781 + C782 = 1
 Constraints_for_play13|15: C783 + C784 + C785 = 1
 Constraints_for_play13|16: C786 + C787 + C788 = 1
 Constraints_for_play13|17: C789 + C790 + C791 = 1
 Constraints_for_play13|18: C792 + C793 + C794 = 1
 Constraints_for_play13|19: C795 + C796 + C797 = 1
 Constraints_for_play14|0: C798 + C799 + C800 = 1
 Constraints_for_play14|1: C801 + C802 + C803 = 1
 Constraints_for_play14|2: C804 + C805 + C806 = 1
 Constraints_for_play14|3: C807 + C808 + C809 = 1
 Constraints_for_play14|4: C810 + C811 + C812 = 1
 Constraints_for_play14|5: C813 + C814 + C815 = 1
 Constraints_for_play14|6: C816 + C817 + C818 = 1
 Constraints_for_play14|7: C819 + C820 + C821 = 1
 Constraints_for_play14|8: C822 + C823 + C824 = 1
 Constraints_for_play14|9: C825 + C826 + C827 = 1
 Constraints_for_play14|10: C828 + C829 + C830 = 1
 Constraints_for_play14|11: C831 + C832 + C833 = 1
 Constraints_for_play14|12: C834 + C835 + C836 = 1
 Constraints_for_play14|13: C837 + C838 + C839 = 1
 Constraints_for_play14|15: C840 + C841 + C842 = 1
 Constraints_for_play14|16: C843 + C844 + C845 = 1
 Constraints_for_play14|17: C846 + C847 + C848 = 1
 Constraints_for_play14|18: C849 + C850 + C851 = 1
 Constraints_for_play14|19: C852 + C853 + C854 = 1
 Constraints_for_play15|0: C855 + C856 + C857 = 1
 Constraints_for_play15|1: C858 + C859 + C860 = 1
 Constraints_for_play15|2: C861 + C862 + C863 = 1
 Constraints_for_play15|3: C864 + C865 + C866 = 1
 Constraints_for_play15|4: C867 + C868 + C869 = 1
 Constraints_for_play15|5: C870 + C871 + C872 = 1
 Constraints_for_play15|6: C873 + C874 + C875 = 1
 Constraints_for_play15|7: C876 + C877 + C878 = 1
 Constraints_for_play15|8: C879 + C880 + C881 = 1
 Constraints_for_play15|9: C882 + C883 + C884 = 1
 Constraints_for_play15|10: C885 + C886 + C887 = 1
 Constraints_for_play15|11: C888 + C889 + C890 = 1
 Constraints_for_play15|12: C891 + C892 + C893 = 1
 Constraints_for_play15|13: C894 + C895 + C896 = 1
 Constraints_for_play15|14: C897 + C898 + C899 = 1
 Constraints_for_play15|16: C900 + C901 + C902 = 1
 Constraints_for_play15|17: C903 + C904 + C905 = 1
 Constraints_for_play15|18: C906 + C907 + C908 = 1
 Constraints_for_play15|19: C909 + C910 + C911 = 1
 Constraints_for_play16|0: C912 + C913 + C914 = 1
 Constraints_for_play16|1: C915 + C916 + C917 = 1
 Constraints_for_play16|2: C918 + C919 + C920 = 1
 Constraints_for_play16|3: C921 + C922 + C923 = 1
 Constraints_for_play16|4: C924 + C925 + C926 = 1
 Constraints_for_play16|5: C927 + C928 + C929 = 1
 Constraints_for_play16|6: C930 + C931 + C932 = 1
 Constraints_for_play16|7: C933 + C934 + C935 = 1
 Constraints_for_play16|8: C936 + C937 + C938 = 1
 Constraints_for_play16|9: C939 + C940 + C941 = 1
 Constraints_for_play16|10: C942 + C943 + C944 = 1
 Constraints_for_play16|11: C945 + C946 + C947 = 1
 Constraints_for_play16|12: C948 + C949 + C950 = 1
 Constraints_for_play16|13: C951 + C952 + C953 = 1
 Constraints_for_play16|14: C954 + C955 + C956 = 1
 Constraints_for_play16|15: C957 + C958 + C959 = 1
 Constraints_for_play16|17: C960 + C961 + C962 = 1
 Constraints_for_play16|18: C963 + C964 + C965 = 1
 Constraints_for_play16|19: C966 + C967 + C968 = 1
 Constraints_for_play17|0: C969 + C970 + C971 = 1
 Constraints_for_play17|1: C972 + C973 + C974 = 1
 Constraints_for_play17|2: C975 + C976 + C977 = 1
 Constraints_for_play17|3: C978 + C979 + C980 = 1
 Constraints_for_play17|4: C981 + C982 + C983 = 1
 Constraints_for_play17|5: C984 + C985 + C986 = 1
 Constraints_for_play17|6: C987 + C988 + C989 = 1
 Constraints_for_play17|7: C990 + C991 + C992 = 1
 Constraints_for_play17|8: C993 + C994 + C995 = 1
 Constraints_for_play17|9: C996 + C997 + C998 = 1
 Constraints_for_play17|10: C999 + C1000 + C1001 = 1
 Constraints_for_play17|11: C1002 + C1003 + C1004 = 1
 Constraints_for_play17|12: C1005 + C1006 + C1007 = 1
 Constraints_for_play17|13: C1008 + C1009 + C1010 = 1
 Constraints_for_play17|14: C1011 + C1012 + C1013 = 1
 Constraints_for_play17|15: C1014 + C1015 + C1016 = 1
 Constraints_for_play17|16: C1017 + C1018 + C1019 = 1
 Constraints_for_play17|18: C1020 + C1021 + C1022 = 1
 Constraints_for_play17|19: C1023 + C1024 + C1025 = 1
 Constraints_for_play18|0: C1026 + C1027 + C1028 = 1
 Constraints_for_play18|1: C1029 + C1030 + C1031 = 1
 Constraints_for_play18|2: C1032 + C1033 + C1034 = 1
 Constraints_for_play18|3: C1035 + C1036 + C1037 = 1
 Constraints_for_play18|4: C1038 + C1039 + C1040 = 1
 Constraints_for_play18|5: C1041 + C1042 + C1043 = 1
 Constraints_for_play18|6: C1044 + C1045 + C1046 = 1
 Constraints_for_play18|7: C1047 + C1048 + C1049 = 1
 Constraints_for_play18|8: C1050 + C1051 + C1052 = 1
 Constraints_for_play18|9: C1053 + C1054 + C1055 = 1
 Constraints_for_play18|10: C1056 + C1057 + C1058 = 1
 Constraints_for_play18|11: C1059 + C1060 + C1061 = 1
 Constraints_for_play18|12: C1062 + C1063 + C1064 = 1
 Constraints_for_play18|13: C1065 + C1066 + C1067 = 1
 Constraints_for_play18|14: C1068 + C1069 + C1070 = 1
 Constraints_for_play18|15: C1071 + C1072 + C1073 = 1
 Constraints_for_play18|16: C1074 + C1075 + C1076 = 1
 Constraints_for_play18|17: C1077 + C1078 + C1079 = 1
 Constraints_for_play18|19: C1080 + C1081 + C1082 = 1
 Constraints_for_play19|0: C1083 + C1084 + C1085 = 1
 Constraints_for_play19|1: C1086 + C1087 + C1088 = 1
 Constraints_for_play19|2: C1089 + C1090 + C1091 = 1
 Constraints_for_play19|3: C1092 + C1093 + C1094 = 1
 Constraints_for_play19|4: C1095 + C1096 + C1097 = 1
 Constraints_for_play19|5: C1098 + C1099 + C1100 = 1
 Constraints_for_play19|6: C1101 + C1102 + C1103 = 1
 Constraints_for_play19|7: C1104 + C1105 + C1106 = 1
 Constraints_for_play19|8: C1107 + C1108 + C1109 = 1
 Constraints_for_play19|9: C1110 + C1111 + C1112 = 1
 Constraints_for_play19|10: C1113 + C1114 + C1115 = 1
 Constraints_for_play19|11: C1116 + C1117 + C1118 = 1
 Constraints_for_play19|12: C1119 + C1120 + C1121 = 1
 Constraints_for_play19|13: C1122 + C1123 + C1124 = 1
 Constraints_for_play19|14: C1125 + C1126 + C1127 = 1
 Constraints_for_play19|15: C1128 + C1129 + C1130 = 1
 Constraints_for_play19|16: C1131 + C1132 + C1133 = 1
 Constraints_for_play19|17: C1134 + C1135 + C1136 = 1
 Constraints_for_play19|18: C1137 + C1138 + C1139 = 1
 order: - C1140 + C1141 <= 0
 order: - C1141 + C1142 <= 0
 order: - C1142 + C1143 <= 0
 order: - C1143 + C1144 <= 0
 order: - C1144 + C1145 <= 0
 order: - C1145 + C1146 <= 0
 order: - C1146 + C1147 <= 0
 order: - C1147 + C1148 <= 0
 order: - C1148 + C1149 <= 0
 order: - C1149 + C1150 <= 0
 order: - C1150 + C1151 <= 0
 order: - C1151 + C1152 <= 0
 order: - C1152 + C1153 <= 0
 order: - C1153 + C1154 <= 0
 order: - C1154 + C1155 <= 0
 order: - C1155 + C1156 <= 0
 order: - C1156 + C1157 <= 0
 order: - C1157 + C1158 <= 0
 order: - C1158 + C1159 <= 0
 Constraints_for_points0: C0 + 3 C1 + C3 + 3 C4 + C6 + 3 C7 + C9 + 3 C10
   + C12 + 3 C13 + C15 + 3 C16 + C18 + 3 C19 + C21 + 3 C22 + C24 + 3 C25
   + C27 + 3 C28 + C30 + 3 C31 + C33 + 3 C34 + C36 + 3 C37 + C39 + 3 C40
   + C42 + 3 C43 + C45 + 3 C46 + C48 + 3 C49 + C51 + 3 C52 + C54 + 3 C55
   + C57 + 3 C59 + C114 + 3 C116 + C171 + 3 C173 + C228 + 3 C230 + C285
   + 3 C287 + C342 + 3 C344 + C399 + 3 C401 + C456 + 3 C458 + C513 + 3 C515
   + C570 + 3 C572 + C627 + 3 C629 + C684 + 3 C686 + C741 + 3 C743 + C798
   + 3 C800 + C855 + 3 C857 + C912 + 3 C914 + C969 + 3 C971 + C1026
   + 3 C1028 + C1083 + 3 C1085 - C1140 = 0
 Constraints_for_points1: C0 + 3 C2 + C57 + 3 C58 + C60 + 3 C61 + C63
   + 3 C64 + C66 + 3 C67 + C69 + 3 C70 + C72 + 3 C73 + C75 + 3 C76 + C78
   + 3 C79 + C81 + 3 C82 + C84 + 3 C85 + C87 + 3 C88 + C90 + 3 C91 + C93
   + 3 C94 + C96 + 3 C97 + C99 + 3 C100 + C102 + 3 C103 + C105 + 3 C106
   + C108 + 3 C109 + C111 + 3 C112 + C117 + 3 C119 + C174 + 3 C176 + C231
   + 3 C233 + C288 + 3 C290 + C345 + 3 C347 + C402 + 3 C404 + C459 + 3 C461
   + C516 + 3 C518 + C573 + 3 C575 + C630 + 3 C632 + C687 + 3 C689 + C744
   + 3 C746 + C801 + 3 C803 + C858 + 3 C860 + C915 + 3 C917 + C972 + 3 C974
   + C1029 + 3 C1031 + C1086 + 3 C1088 - C1141 = 0
 Constraints_for_points2: C3 + 3 C5 + C60 + 3 C62 + C114 + 3 C115 + C117
   + 3 C118 + C120 + 3 C121 + C123 + 3 C124 + C126 + 3 C127 + C129 + 3 C130
   + C132 + 3 C133 + C135 + 3 C136 + C138 + 3 C139 + C141 + 3 C142 + C144
   + 3 C145 + C147 + 3 C148 + C150 + 3 C151 + C153 + 3 C154 + C156 + 3 C157
   + C159 + 3 C160 + C162 + 3 C163 + C165 + 3 C166 + C168 + 3 C169 + C177
   + 3 C179 + C234 + 3 C236 + C291 + 3 C293 + C348 + 3 C350 + C405 + 3 C407
   + C462 + 3 C464 + C519 + 3 C521 + C576 + 3 C578 + C633 + 3 C635 + C690
   + 3 C692 + C747 + 3 C749 + C804 + 3 C806 + C861 + 3 C863 + C918 + 3 C920
   + C975 + 3 C977 + C1032 + 3 C1034 + C1089 + 3 C1091 - C1142 = 0
 Constraints_for_points3: C6 + 3 C8 + C63 + 3 C65 + C120 + 3 C122 + C171
   + 3 C172 + C174 + 3 C175 + C177 + 3 C178 + C180 + 3 C181 + C183 + 3 C184
   + C186 + 3 C187 + C189 + 3 C190 + C192 + 3 C193 + C195 + 3 C196 + C198
   + 3 C199 + C201 + 3 C202 + C204 + 3 C205 + C207 + 3 C208 + C210 + 3 C211
   + C213 + 3 C214 + C216 + 3 C217 + C219 + 3 C220 + C222 + 3 C223 + C225
   + 3 C226 + C237 + 3 C239 + C294 + 3 C296 + C351 + 3 C353 + C408 + 3 C410
   + C465 + 3 C467 + C522 + 3 C524 + C579 + 3 C581 + C636 + 3 C638 + C693
   + 3 C695 + C750 + 3 C752 + C807 + 3 C809 + C864 + 3 C866 + C921 + 3 C923
   + C978 + 3 C980 + C1035 + 3 C1037 + C1092 + 3 C1094 - C1143 = 0
 Constraints_for_points4: C9 + 3 C11 + C66 + 3 C68 + C123 + 3 C125 + C180
   + 3 C182 + C228 + 3 C229 + C231 + 3 C232 + C234 + 3 C235 + C237 + 3 C238
   + C240 + 3 C241 + C243 + 3 C244 + C246 + 3 C247 + C249 + 3 C250 + C252
   + 3 C253 + C255 + 3 C256 + C258 + 3 C259 + C261 + 3 C262 + C264 + 3 C265
   + C267 + 3 C268 + C270 + 3 C271 + C273 + 3 C274 + C276 + 3 C277 + C279
   + 3 C280 + C282 + 3 C283 + C297 + 3 C299 + C354 + 3 C356 + C411 + 3 C413
   + C468 + 3 C470 + C525 + 3 C527 + C582 + 3 C584 + C639 + 3 C641 + C696
   + 3 C698 + C753 + 3 C755 + C810 + 3 C812 + C867 + 3 C869 + C924 + 3 C926
   + C981 + 3 C983 + C1038 + 3 C1040 + C1095 + 3 C1097 - C1144 = 0
 Constraints_for_points5: C12 + 3 C14 + C69 + 3 C71 + C126 + 3 C128 + C183
   + 3 C185 + C240 + 3 C242 + C285 + 3 C286 + C288 + 3 C289 + C291 + 3 C292
   + C294 + 3 C295 + C297 + 3 C298 + C300 + 3 C301 + C303 + 3 C304 + C306
   + 3 C307 + C309 + 3 C310 + C312 + 3 C313 + C315 + 3 C316 + C318 + 3 C319
   + C321 + 3 C322 + C324 + 3 C325 + C327 + 3 C328 + C330 + 3 C331 + C333
   + 3 C334 + C336 + 3 C337 + C339 + 3 C340 + C357 + 3 C359 + C414 + 3 C416
   + C471 + 3 C473 + C528 + 3 C530 + C585 + 3 C587 + C642 + 3 C644 + C699
   + 3 C701 + C756 + 3 C758 + C813 + 3 C815 + C870 + 3 C872 + C927 + 3 C929
   + C984 + 3 C986 + C1041 + 3 C1043 + C1098 + 3 C1100 - C1145 = 0
 Constraints_for_points6: C15 + 3 C17 + C72 + 3 C74 + C129 + 3 C131 + C186
   + 3 C188 + C243 + 3 C245 + C300 + 3 C302 + C342 + 3 C343 + C345 + 3 C346
   + C348 + 3 C349 + C351 + 3 C352 + C354 + 3 C355 + C357 + 3 C358 + C360
   + 3 C361 + C363 + 3 C364 + C366 + 3 C367 + C369 + 3 C370 + C372 + 3 C373
   + C375 + 3 C376 + C378 + 3 C379 + C381 + 3 C382 + C384 + 3 C385 + C387
   + 3 C388 + C390 + 3 C391 + C393 + 3 C394 + C396 + 3 C397 + C417 + 3 C419
   + C474 + 3 C476 + C531 + 3 C533 + C588 + 3 C590 + C645 + 3 C647 + C702
   + 3 C704 + C759 + 3 C761 + C816 + 3 C818 + C873 + 3 C875 + C930 + 3 C932
   + C987 + 3 C989 + C1044 + 3 C1046 + C1101 + 3 C1103 - C1146 = 0
 Constraints_for_points7: C18 + 3 C20 + C75 + 3 C77 + C132 + 3 C134 + C189
   + 3 C191 + C246 + 3 C248 + C303 + 3 C305 + C360 + 3 C362 + C399 + 3 C400
   + C402 + 3 C403 + C405 + 3 C406 + C408 + 3 C409 + C411 + 3 C412 + C414
   + 3 C415 + C417 + 3 C418 + C420 + 3 C421 + C423 + 3 C424 + C426 + 3 C427
   + C429 + 3 C430 + C432 + 3 C433 + C435 + 3 C436 + C438 + 3 C439 + C441
   + 3 C442 + C444 + 3 C445 + C447 + 3 C448 + C450 + 3 C451 + C453 + 3 C454
   + C477 + 3 C479 + C534 + 3 C536 + C591 + 3 C593 + C648 + 3 C650 + C705
   + 3 C707 + C762 + 3 C764 + C819 + 3 C821 + C876 + 3 C878 + C933 + 3 C935
   + C990 + 3 C992 + C1047 + 3 C1049 + C1104 + 3 C1106 - C1147 = 0
 Constraints_for_points8: C21 + 3 C23 + C78 + 3 C80 + C135 + 3 C137 + C192
   + 3 C194 + C249 + 3 C251 + C306 + 3 C308 + C363 + 3 C365 + C420 + 3 C422
   + C456 + 3 C457 + C459 + 3 C460 + C462 + 3 C463 + C465 + 3 C466 + C468
   + 3 C469 + C471 + 3 C472 + C474 + 3 C475 + C477 + 3 C478 + C480 + 3 C481
   + C483 + 3 C484 + C486 + 3 C487 + C489 + 3 C490 + C492 + 3 C493 + C495
   + 3 C496 + C498 + 3 C499 + C501 + 3 C502 + C504 + 3 C505 + C507 + 3 C508
   + C510 + 3 C511 + C537 + 3 C539 + C594 + 3 C596 + C651 + 3 C653 + C708
   + 3 C710 + C765 + 3 C767 + C822 + 3 C824 + C879 + 3 C881 + C936 + 3 C938
   + C993 + 3 C995 + C1050 + 3 C1052 + C1107 + 3 C1109 - C1148 = 0
 Constraints_for_points9: C24 + 3 C26 + C81 + 3 C83 + C138 + 3 C140 + C195
   + 3 C197 + C252 + 3 C254 + C309 + 3 C311 + C366 + 3 C368 + C423 + 3 C425
   + C480 + 3 C482 + C513 + 3 C514 + C516 + 3 C517 + C519 + 3 C520 + C522
   + 3 C523 + C525 + 3 C526 + C528 + 3 C529 + C531 + 3 C532 + C534 + 3 C535
   + C537 + 3 C538 + C540 + 3 C541 + C543 + 3 C544 + C546 + 3 C547 + C549
   + 3 C550 + C552 + 3 C553 + C555 + 3 C556 + C558 + 3 C559 + C561 + 3 C562
   + C564 + 3 C565 + C567 + 3 C568 + C597 + 3 C599 + C654 + 3 C656 + C711
   + 3 C713 + C768 + 3 C770 + C825 + 3 C827 + C882 + 3 C884 + C939 + 3 C941
   + C996 + 3 C998 + C1053 + 3 C1055 + C1110 + 3 C1112 - C1149 = 0
 Constraints_for_points10: C27 + 3 C29 + C84 + 3 C86 + C141 + 3 C143 + C198
   + 3 C200 + C255 + 3 C257 + C312 + 3 C314 + C369 + 3 C371 + C426 + 3 C428
   + C483 + 3 C485 + C540 + 3 C542 + C570 + 3 C571 + C573 + 3 C574 + C576
   + 3 C577 + C579 + 3 C580 + C582 + 3 C583 + C585 + 3 C586 + C588 + 3 C589
   + C591 + 3 C592 + C594 + 3 C595 + C597 + 3 C598 + C600 + 3 C601 + C603
   + 3 C604 + C606 + 3 C607 + C609 + 3 C610 + C612 + 3 C613 + C615 + 3 C616
   + C618 + 3 C619 + C621 + 3 C622 + C624 + 3 C625 + C657 + 3 C659 + C714
   + 3 C716 + C771 + 3 C773 + C828 + 3 C830 + C885 + 3 C887 + C942 + 3 C944
   + C999 + 3 C1001 + C1056 + 3 C1058 + C1113 + 3 C1115 - C1150 = 0
 Constraints_for_points11: C30 + 3 C32 + C87 + 3 C89 + C144 + 3 C146 + C201
   + 3 C203 + C258 + 3 C260 + C315 + 3 C317 + C372 + 3 C374 + C429 + 3 C431
   + C486 + 3 C488 + C543 + 3 C545 + C600 + 3 C602 + C627 + 3 C628 + C630
   + 3 C631 + C633 + 3 C634 + C636 + 3 C637 + C639 + 3 C640 + C642 + 3 C643
   + C645 + 3 C646 + C648 + 3 C649 + C651 + 3 C652 + C654 + 3 C655 + C657
   + 3 C658 + C660 + 3 C661 + C663 + 3 C664 + C666 + 3 C667 + C669 + 3 C670
   + C672 + 3 C673 + C675 + 3 C676 + C678 + 3 C679 + C681 + 3 C682 + C717
   + 3 C719 + C774 + 3 C776 + C831 + 3 C833 + C888 + 3 C890 + C945 + 3 C947
   + C1002 + 3 C1004 + C1059 + 3 C1061 + C1116 + 3 C1118 - C1151 = 0
 Constraints_for_points12: C33 + 3 C35 + C90 + 3 C92 + C147 + 3 C149 + C204
   + 3 C206 + C261 + 3 C263 + C318 + 3 C320 + C375 + 3 C377 + C432 + 3 C434
   + C489 + 3 C491 + C546 + 3 C548 + C603 + 3 C605 + C660 + 3 C662 + C684
   + 3 C685 + C687 + 3 C688 + C690 + 3 C691 + C693 + 3 C694 + C696 + 3 C697
   + C699 + 3 C700 + C702 + 3 C703 + C705 + 3 C706 + C708 + 3 C709 + C711
   + 3 C712 + C714 + 3 C715 + C717 + 3 C718 + C720 + 3 C721 + C723 + 3 C724
   + C726 + 3 C727 + C729 + 3 C730 + C732 + 3 C733 + C735 + 3 C736 + C738
   + 3 C739 + C777 + 3 C779 + C834 + 3 C836 + C891 + 3 C893 + C948 + 3 C950
   + C1005 + 3 C1007 + C1062 + 3 C1064 + C1119 + 3 C1121 - C1152 = 0
 Constraints_for_points13: C36 + 3 C38 + C93 + 3 C95 + C150 + 3 C152 + C207
   + 3 C209 + C264 + 3 C266 + C321 + 3 C323 + C378 + 3 C380 + C435 + 3 C437
   + C492 + 3 C494 + C549 + 3 C551 + C606 + 3 C608 + C663 + 3 C665 + C720
   + 3 C722 + C741 + 3 C742 + C744 + 3 C745 + C747 + 3 C748 + C750 + 3 C751
   + C753 + 3 C754 + C756 + 3 C757 + C759 + 3 C760 + C762 + 3 C763 + C765
   + 3 C766 + C768 + 3 C769 + C771 + 3 C772 + C774 + 3 C775 + C777 + 3 C778
   + C780 + 3 C781 + C783 + 3 C784 + C786 + 3 C787 + C789 + 3 C790 + C792
   + 3 C793 + C795 + 3 C796 + C837 + 3 C839 + C894 + 3 C896 + C951 + 3 C953
   + C1008 + 3 C1010 + C1065 + 3 C1067 + C1122 + 3 C1124 - C1153 = 0
 Constraints_for_points14: C39 + 3 C41 + C96 + 3 C98 + C153 + 3 C155 + C210
   + 3 C212 + C267 + 3 C269 + C324 + 3 C326 + C381 + 3 C383 + C438 + 3 C440
   + C495 + 3 C497 + C552 + 3 C554 + C609 + 3 C611 + C666 + 3 C668 + C723
   + 3 C725 + C780 + 3 C782 + C798 + 3 C799 + C801 + 3 C802 + C804 + 3 C805
   + C807 + 3 C808 + C810 + 3 C811 + C813 + 3 C814 + C816 + 3 C817 + C819
   + 3 C820 + C822 + 3 C823 + C825 + 3 C826 + C828 + 3 C829 + C831 + 3 C832
   + C834 + 3 C835 + C837 + 3 C838 + C840 + 3 C841 + C843 + 3 C844 + C846
   + 3 C847 + C849 + 3 C850 + C852 + 3 C853 + C897 + 3 C899 + C954 + 3 C956
   + C1011 + 3 C1013 + C1068 + 3 C1070 + C1125 + 3 C1127 - C1154 = 0
 Constraints_for_points15: C42 + 3 C44 + C99 + 3 C101 + C156 + 3 C158
   + C213 + 3 C215 + C270 + 3 C272 + C327 + 3 C329 + C384 + 3 C386 + C441
   + 3 C443 + C498 + 3 C500 + C555 + 3 C557 + C612 + 3 C614 + C669 + 3 C671
   + C726 + 3 C728 + C783 + 3 C785 + C840 + 3 C842 + C855 + 3 C856 + C858
   + 3 C859 + C861 + 3 C862 + C864 + 3 C865 + C867 + 3 C868 + C870 + 3 C871
   + C873 + 3 C874 + C876 + 3 C877 + C879 + 3 C880 + C882 + 3 C883 + C885
   + 3 C886 + C888 + 3 C889 + C891 + 3 C892 + C894 + 3 C895 + C897 + 3 C898
   + C900 + 3 C901 + C903 + 3 C904 + C906 + 3 C907 + C909 + 3 C910 + C957
   + 3 C959 + C1014 + 3 C1016 + C1071 + 3 C1073 + C1128 + 3 C1130 - C1155
   = 0
 Constraints_for_points16: C45 + 3 C47 + C102 + 3 C104 + C159 + 3 C161
   + C216 + 3 C218 + C273 + 3 C275 + C330 + 3 C332 + C387 + 3 C389 + C444
   + 3 C446 + C501 + 3 C503 + C558 + 3 C560 + C615 + 3 C617 + C672 + 3 C674
   + C729 + 3 C731 + C786 + 3 C788 + C843 + 3 C845 + C900 + 3 C902 + C912
   + 3 C913 + C915 + 3 C916 + C918 + 3 C919 + C921 + 3 C922 + C924 + 3 C925
   + C927 + 3 C928 + C930 + 3 C931 + C933 + 3 C934 + C936 + 3 C937 + C939
   + 3 C940 + C942 + 3 C943 + C945 + 3 C946 + C948 + 3 C949 + C951 + 3 C952
   + C954 + 3 C955 + C957 + 3 C958 + C960 + 3 C961 + C963 + 3 C964 + C966
   + 3 C967 + C1017 + 3 C1019 + C1074 + 3 C1076 + C1131 + 3 C1133 - C1156
   = 0
 Constraints_for_points17: C48 + 3 C50 + C105 + 3 C107 + C162 + 3 C164
   + C219 + 3 C221 + C276 + 3 C278 + C333 + 3 C335 + C390 + 3 C392 + C447
   + 3 C449 + C504 + 3 C506 + C561 + 3 C563 + C618 + 3 C620 + C675 + 3 C677
   + C732 + 3 C734 + C789 + 3 C791 + C846 + 3 C848 + C903 + 3 C905 + C960
   + 3 C962 + C969 + 3 C970 + C972 + 3 C973 + C975 + 3 C976 + C978 + 3 C979
   + C981 + 3 C982 + C984 + 3 C985 + C987 + 3 C988 + C990 + 3 C991 + C993
   + 3 C994 + C996 + 3 C997 + C999 + 3 C1000 + C1002 + 3 C1003 + C1005
   + 3 C1006 + C1008 + 3 C1009 + C1011 + 3 C1012 + C1014 + 3 C1015 + C1017
   + 3 C1018 + C1020 + 3 C1021 + C1023 + 3 C1024 + C1077 + 3 C1079 + C1134
   + 3 C1136 - C1157 = 0
 Constraints_for_points18: C51 + 3 C53 + C108 + 3 C110 + C165 + 3 C167
   + C222 + 3 C224 + C279 + 3 C281 + C336 + 3 C338 + C393 + 3 C395 + C450
   + 3 C452 + C507 + 3 C509 + C564 + 3 C566 + C621 + 3 C623 + C678 + 3 C680
   + C735 + 3 C737 + C792 + 3 C794 + C849 + 3 C851 + C906 + 3 C908 + C963
   + 3 C965 + C1020 + 3 C1022 + C1026 + 3 C1027 + C1029 + 3 C1030 + C1032
   + 3 C1033 + C1035 + 3 C1036 + C1038 + 3 C1039 + C1041 + 3 C1042 + C1044
   + 3 C1045 + C1047 + 3 C1048 + C1050 + 3 C1051 + C1053 + 3 C1054 + C1056
   + 3 C1057 + C1059 + 3 C1060 + C1062 + 3 C1063 + C1065 + 3 C1066 + C1068
   + 3 C1069 + C1071 + 3 C1072 + C1074 + 3 C1075 + C1077 + 3 C1078 + C1080
   + 3 C1081 + C1137 + 3 C1139 - C1158 = 0
 Constraints_for_points19: C54 + 3 C56 + C111 + 3 C113 + C168 + 3 C170
   + C225 + 3 C227 + C282 + 3 C284 + C339 + 3 C341 + C396 + 3 C398 + C453
   + 3 C455 + C510 + 3 C512 + C567 + 3 C569 + C624 + 3 C626 + C681 + 3 C683
   + C738 + 3 C740 + C795 + 3 C797 + C852 + 3 C854 + C909 + 3 C911 + C966
   + 3 C968 + C1023 + 3 C1025 + C1080 + 3 C1082 + C1083 + 3 C1084 + C1086
   + 3 C1087 + C1089 + 3 C1090 + C1092 + 3 C1093 + C1095 + 3 C1096 + C1098
   + 3 C1099 + C1101 + 3 C1102 + C1104 + 3 C1105 + C1107 + 3 C1108 + C1110
   + 3 C1111 + C1113 + 3 C1114 + C1116 + 3 C1117 + C1119 + 3 C1120 + C1122
   + 3 C1123 + C1125 + 3 C1126 + C1128 + 3 C1129 + C1131 + 3 C1132 + C1134
   + 3 C1135 + C1137 + 3 C1138 - C1159 = 0
Bounds
Binaries
 C0 C1 C2 C3 C4 C5 C6 C7 C8 C9 C10 C11 C12 C13 C14 C15 C16 C17 C18 C19 C20
 C21 C22 C23 C24 C25 C26 C27 C28 C29 C30 C31 C32 C33 C34 C35 C36 C37 C38
 C39 C40 C41 C42 C43 C44 C45 C46 C47 C48 C49 C50 C51 C52 C53 C54 C55 C56
 C57 C58 C59 C60 C61 C62 C63 C64 C65 C66 C67 C68 C69 C70 C71 C72 C73 C74
 C75 C76 C77 C78 C79 C80 C81 C82 C83 C84 C85 C86 C87 C88 C89 C90 C91 C92
 C93 C94 C95 C96 C97 C98 C99 C100 C101 C102 C103 C104 C105 C106 C107 C108
 C109 C110 C111 C112 C113 C114 C115 C116 C117 C118 C119 C120 C121 C122 C123
 C124 C125 C126 C127 C128 C129 C130 C131 C132 C133 C134 C135 C136 C137 C138
 C139 C140 C141 C142 C143 C144 C145 C146 C147 C148 C149 C150 C151 C152 C153
 C154 C155 C156 C157 C158 C159 C160 C161 C162 C163 C164 C165 C166 C167 C168
 C169 C170 C171 C172 C173 C174 C175 C176 C177 C178 C179 C180 C181 C182 C183
 C184 C185 C186 C187 C188 C189 C190 C191 C192 C193 C194 C195 C196 C197 C198
 C199 C200 C201 C202 C203 C204 C205 C206 C207 C208 C209 C210 C211 C212 C213
 C214 C215 C216 C217 C218 C219 C220 C221 C222 C223 C224 C225 C226 C227 C228
 C229 C230 C231 C232 C233 C234 C235 C236 C237 C238 C239 C240 C241 C242 C243
 C244 C245 C246 C247 C248 C249 C250 C251 C252 C253 C254 C255 C256 C257 C258
 C259 C260 C261 C262 C263 C264 C265 C266 C267 C268 C269 C270 C271 C272 C273
 C274 C275 C276 C277 C278 C279 C280 C281 C282 C283 C284 C285 C286 C287 C288
 C289 C290 C291 C292 C293 C294 C295 C296 C297 C298 C299 C300 C301 C302 C303
 C304 C305 C306 C307 C308 C309 C310 C311 C312 C313 C314 C315 C316 C317 C318
 C319 C320 C321 C322 C323 C324 C325 C326 C327 C328 C329 C330 C331 C332 C333
 C334 C335 C336 C337 C338 C339 C340 C341 C342 C343 C344 C345 C346 C347 C348
 C349 C350 C351 C352 C353 C354 C355 C356 C357 C358 C359 C360 C361 C362 C363
 C364 C365 C366 C367 C368 C369 C370 C371 C372 C373 C374 C375 C376 C377 C378
 C379 C380 C381 C382 C383 C384 C385 C386 C387 C388 C389 C390 C391 C392 C393
 C394 C395 C396 C397 C398 C399 C400 C401 C402 C403 C404 C405 C406 C407 C408
 C409 C410 C411 C412 C413 C414 C415 C416 C417 C418 C419 C420 C421 C422 C423
 C424 C425 C426 C427 C428 C429 C430 C431 C432 C433 C434 C435 C436 C437 C438
 C439 C440 C441 C442 C443 C444 C445 C446 C447 C448 C449 C450 C451 C452 C453
 C454 C455 C456 C457 C458 C459 C460 C461 C462 C463 C464 C465 C466 C467 C468
 C469 C470 C471 C472 C473 C474 C475 C476 C477 C478 C479 C480 C481 C482 C483
 C484 C485 C486 C487 C488 C489 C490 C491 C492 C493 C494 C495 C496 C497 C498
 C499 C500 C501 C502 C503 C504 C505 C506 C507 C508 C509 C510 C511 C512 C513
 C514 C515 C516 C517 C518 C519 C520 C521 C522 C523 C524 C525 C526 C527 C528
 C529 C530 C531 C532 C533 C534 C535 C536 C537 C538 C539 C540 C541 C542 C543
 C544 C545 C546 C547 C548 C549 C550 C551 C552 C553 C554 C555 C556 C557 C558
 C559 C560 C561 C562 C563 C564 C565 C566 C567 C568 C569 C570 C571 C572 C573
 C574 C575 C576 C577 C578 C579 C580 C581 C582 C583 C584 C585 C586 C587 C588
 C589 C590 C591 C592 C593 C594 C595 C596 C597 C598 C599 C600 C601 C602 C603
 C604 C605 C606 C607 C608 C609 C610 C611 C612 C613 C614 C615 C616 C617 C618
 C619 C620 C621 C622 C623 C624 C625 C626 C627 C628 C629 C630 C631 C632 C633
 C634 C635 C636 C637 C638 C639 C640 C641 C642 C643 C644 C645 C646 C647 C648
 C649 C650 C651 C652 C653 C654 C655 C656 C657 C658 C659 C660 C661 C662 C663
 C664 C665 C666 C667 C668 C669 C670 C671 C672 C673 C674 C675 C676 C677 C678
 C679 C680 C681 C682 C683 C684 C685 C686 C687 C688 C689 C690 C691 C692 C693
 C694 C695 C696 C697 C698 C699 C700 C701 C702 C703 C704 C705 C706 C707 C708
 C709 C710 C711 C712 C713 C714 C715 C716 C717 C718 C719 C720 C721 C722 C723
 C724 C725 C726 C727 C728 C729 C730 C731 C732 C733 C734 C735 C736 C737 C738
 C739 C740 C741 C742 C743 C744 C745 C746 C747 C748 C749 C750 C751 C752 C753
 C754 C755 C756 C757 C758 C759 C760 C761 C762 C763 C764 C765 C766 C767 C768
 C769 C770 C771 C772 C773 C774 C775 C776 C777 C778 C779 C780 C781 C782 C783
 C784 C785 C786 C787 C788 C789 C790 C791 C792 C793 C794 C795 C796 C797 C798
 C799 C800 C801 C802 C803 C804 C805 C806 C807 C808 C809 C810 C811 C812 C813
 C814 C815 C816 C817 C818 C819 C820 C821 C822 C823 C824 C825 C826 C827 C828
 C829 C830 C831 C832 C833 C834 C835 C836 C837 C838 C839 C840 C841 C842 C843
 C844 C845 C846 C847 C848 C849 C850 C851 C852 C853 C854 C855 C856 C857 C858
 C859 C860 C861 C862 C863 C864 C865 C866 C867 C868 C869 C870 C871 C872 C873
 C874 C875 C876 C877 C878 C879 C880 C881 C882 C883 C884 C885 C886 C887 C888
 C889 C890 C891 C892 C893 C894 C895 C896 C897 C898 C899 C900 C901 C902 C903
 C904 C905 C906 C907 C908 C909 C910 C911 C912 C913 C914 C915 C916 C917 C918
 C919 C920 C921 C922 C923 C924 C925 C926 C927 C928 C929 C930 C931 C932 C933
 C934 C935 C936 C937 C938 C939 C940 C941 C942 C943 C944 C945 C946 C947 C948
 C949 C950 C951 C952 C953 C954 C955 C956 C957 C958 C959 C960 C961 C962 C963
 C964 C965 C966 C967 C968 C969 C970 C971 C972 C973 C974 C975 C976 C977 C978
 C979 C980 C981 C982 C983 C984 C985 C986 C987 C988 C989 C990 C991 C992 C993
 C994 C995 C996 C997 C998 C999 C1000 C1001 C1002 C1003 C1004 C1005 C1006
 C1007 C1008 C1009 C1010 C1011 C1012 C1013 C1014 C1015 C1016 C1017 C1018
 C1019 C1020 C1021 C1022 C1023 C1024 C1025 C1026 C1027 C1028 C1029 C1030
 C1031 C1032 C1033 C1034 C1035 C1036 C1037 C1038 C1039 C1040 C1041 C1042
 C1043 C1044 C1045 C1046 C1047 C1048 C1049 C1050 C1051 C1052 C1053 C1054
 C1055 C1056 C1057 C1058 C1059 C1060 C1061 C1062 C1063 C1064 C1065 C1066
 C1067 C1068 C1069 C1070 C1071 C1072 C1073 C1074 C1075 C1076 C1077 C1078
 C1079 C1080 C1081 C1082 C1083 C1084 C1085 C1086 C1087 C1088 C1089 C1090
 C1091 C1092 C1093 C1094 C1095 C1096 C1097 C1098 C1099 C1100 C1101 C1102
 C1103 C1104 C1105 C1106 C1107 C1108 C1109 C1110 C1111 C1112 C1113 C1114
 C1115 C1116 C1117 C1118 C1119 C1120 C1121 C1122 C1123 C1124 C1125 C1126
 C1127 C1128 C1129 C1130 C1131 C1132 C1133 C1134 C1135 C1136 C1137 C1138
 C1139
Generals
 C1140 C1141 C1142 C1143 C1144 C1145 C1146 C1147 C1148 C1149 C1150 C1151
 C1152 C1153 C1154 C1155 C1156 C1157 C1158 C1159
End
